(declare-fun temp1100_1 () (_ BitVec 64))
(declare-fun temp1100_2 () (_ BitVec 64))
(declare-fun extend_57706
             ()
             (Array (_ BitVec 64) (_ BitVec 64)))
(declare-fun temp1100_3 () (_ BitVec 64))
(declare-fun temp1100_4 () (_ BitVec 64))
(declare-fun temp1100_5 () (_ BitVec 64))
(declare-fun temp1100_6 () (_ BitVec 64))
(declare-fun temp1100_7 () (_ BitVec 64))
(declare-fun temp1100_8 () (_ BitVec 64))
(declare-fun temp1100_9 () (_ BitVec 64))
(declare-fun temp1100_10 () (_ BitVec 64))
(declare-fun temp1100_11 () (_ BitVec 64))
(declare-fun temp1100_12 () (_ BitVec 64))
(declare-fun temp1100_13 () (_ BitVec 64))
(declare-fun temp1100_14 () (_ BitVec 64))
(declare-fun extend_57709
             ()
             (Array (_ BitVec 64) (_ BitVec 64)))
(declare-fun temp1100_15 () (_ BitVec 64))
(declare-fun temp1100_16 () (_ BitVec 64))
(declare-fun temp1100_17 () (_ BitVec 64))
(declare-fun temp1100_18 () (_ BitVec 64))
(declare-fun temp1100_19 () (_ BitVec 64))
(declare-fun temp1100_20 () (_ BitVec 64))
(declare-fun temp1100_21 () (_ BitVec 64))
(declare-fun temp1100_22 () (_ BitVec 64))
(declare-fun temp1100_23 () (_ BitVec 64))
(declare-fun temp1100_24 () (_ BitVec 64))
(declare-fun temp1100_25 () (_ BitVec 64))
(declare-fun temp1100_26 () (_ BitVec 64))
(declare-fun temp1100_27 () (_ BitVec 64))
(declare-fun temp1100_28 () (_ BitVec 64))
(declare-fun temp1100_29 () (_ BitVec 64))
(declare-fun temp1100_30 () (_ BitVec 64))
(declare-fun temp1100_31 () (_ BitVec 64))
(declare-fun temp1100_32 () (_ BitVec 64))
(declare-fun temp1100_33 () (_ BitVec 64))
(declare-fun temp1100_34 () (_ BitVec 64))
(declare-fun temp1100_35 () (_ BitVec 64))
(declare-fun temp1100_36 () (_ BitVec 64))
(declare-fun temp1100_37 () (_ BitVec 64))
(declare-fun var66500 () (_ BitVec 64))
(declare-fun k!0 () Bool)
(declare-fun extend_57707 () (_ BitVec 64))
(declare-fun extend_57710 () (_ BitVec 64))
(declare-fun k!1 () Bool)
(declare-fun temp1100_38 () (_ BitVec 64))
(declare-fun var133870 () (_ BitVec 64))
(declare-fun var133866 () (_ BitVec 64))
(declare-fun var66555 () (_ BitVec 64))
(declare-fun temp1100_39 () (_ BitVec 64))
(declare-fun temp1100_40 () (_ BitVec 64))
(declare-fun ARGNAME_input_NAMEEND_DIMSIZE
             ()
             (Array (_ BitVec 64) (_ BitVec 64)))
(declare-fun temp1100_41 () (_ BitVec 64))
(declare-fun temp1100_42 () (_ BitVec 64))
(declare-fun temp1100_43 () (_ BitVec 64))
(declare-fun temp1100_44 () (_ BitVec 64))
(declare-fun temp1100_45 () (_ BitVec 64))
(declare-fun temp1100_46 () (_ BitVec 64))
(declare-fun temp1100_47 () (_ BitVec 64))
(declare-fun temp1100_48 () (_ BitVec 64))
(declare-fun temp1100_49 () (_ BitVec 64))
(declare-fun temp1100_50 () (_ BitVec 64))
(declare-fun temp1100_51 () (_ BitVec 64))
(declare-fun temp1100_52 () (_ BitVec 64))
(declare-fun temp1100_53 () (_ BitVec 64))
(declare-fun temp1100_54 () (_ BitVec 64))
(declare-fun temp1100_55 () (_ BitVec 64))
(declare-fun temp1100_56 () (_ BitVec 64))
(declare-fun temp1100_57 () (_ BitVec 64))
(declare-fun temp1100_58 () (_ BitVec 64))
(declare-fun temp1100_59 () (_ BitVec 64))
(declare-fun temp1100_60 () (_ BitVec 64))
(declare-fun temp1100_61 () (_ BitVec 64))
(declare-fun temp1100_62 () (_ BitVec 64))
(declare-fun temp1100_63 () (_ BitVec 64))
(declare-fun temp1100_64 () (_ BitVec 64))
(declare-fun temp1100_65 () (_ BitVec 64))
(declare-fun temp1100_66 () (_ BitVec 64))
(declare-fun temp1100_67 () (_ BitVec 64))
(declare-fun temp1100_68 () (_ BitVec 64))
(declare-fun temp1100_69 () (_ BitVec 64))
(declare-fun ARGNAME_input_NAMEEND_DIM () (_ BitVec 64))
(declare-fun var66559 () (_ BitVec 64))
(declare-fun temp1100_70 () (_ BitVec 64))
(declare-fun temp1100_71 () (_ BitVec 64))
(declare-fun temp1100_72 () (_ BitVec 64))
(declare-fun ARGNAME_input_NAMEEND_NUMELEMENT () (_ BitVec 64))
(declare-fun var66799 () (_ BitVec 64))
(declare-fun temp1100_73 () (_ BitVec 64))
(declare-fun temp1100_74 () (_ BitVec 64))
(declare-fun var66812 () (_ BitVec 64))
(declare-fun var199486 () (_ BitVec 64))
(declare-fun var527627 () (_ BitVec 64))
(declare-fun var593163 () (_ BitVec 64))
(declare-fun temp1100_75 () (_ BitVec 64))
(declare-fun var870585 () (_ BitVec 64))
(declare-fun temp1100_76 () (_ BitVec 64))
(declare-fun var870586 () (_ BitVec 64))
(declare-fun temp1100_77 () (_ BitVec 64))
(declare-fun var1001657 () (_ BitVec 64))
(declare-fun temp1100_78 () (_ BitVec 64))
(declare-fun var1001658 () (_ BitVec 64))
(declare-fun temp1100_79 () (_ BitVec 64))
(declare-fun var739498 () (_ BitVec 64))
(declare-fun var739460 () (_ BitVec 64))
(declare-fun var658278 () (_ BitVec 64))
(declare-fun var658282 () (_ BitVec 64))
(declare-fun var658263 () (_ BitVec 64))
(declare-fun var66835 () (_ BitVec 64))
(declare-fun temp1100_81 () (_ BitVec 64))
(declare-fun var66813 () (_ BitVec 64))
(declare-fun var66911 () (_ BitVec 64))
(assert (= temp1100_1 #x0000000000000000))
(assert (= temp1100_2 (select extend_57706 temp1100_1)))
(assert (= temp1100_3 #x0000000000000001))
(assert (= temp1100_4 (select extend_57706 temp1100_3)))
(assert (= temp1100_5 #x0000000000000002))
(assert (= temp1100_6 (select extend_57706 temp1100_5)))
(assert (= temp1100_7 #x0000000000000003))
(assert (= temp1100_8 (select extend_57706 temp1100_7)))
(assert (= temp1100_9 #x0000000000000004))
(assert (= temp1100_10 (select extend_57706 temp1100_9)))
(assert (= temp1100_11 #x0000000000000005))
(assert (= temp1100_12 (select extend_57706 temp1100_11)))
(assert (= temp1100_13 #x0000000000000000))
(assert (= temp1100_14 (select extend_57709 temp1100_13)))
(assert (= temp1100_15 #x0000000000000001))
(assert (= temp1100_16 (select extend_57709 temp1100_15)))
(assert (= temp1100_17 #x0000000000000002))
(assert (= temp1100_18 (select extend_57709 temp1100_17)))
(assert (= temp1100_19 #x0000000000000003))
(assert (= temp1100_20 (select extend_57709 temp1100_19)))
(assert (= temp1100_21 #x0000000000000004))
(assert (= temp1100_22 (select extend_57709 temp1100_21)))
(assert (= temp1100_23 #x0000000000000005))
(assert (= temp1100_24 (select extend_57709 temp1100_23)))
(assert (= temp1100_25 (select extend_57709 temp1100_1)))
(assert (= temp1100_26 (select extend_57709 temp1100_11)))
(assert (= temp1100_27 (select extend_57709 temp1100_3)))
(assert (= temp1100_28 (select extend_57709 temp1100_5)))
(assert (= temp1100_29 (select extend_57709 temp1100_7)))
(assert (= temp1100_30 (select extend_57709 temp1100_9)))
(assert (= temp1100_31 (select extend_57706 temp1100_13)))
(assert (= temp1100_32 (select extend_57706 temp1100_15)))
(assert (= temp1100_33 (select extend_57706 temp1100_17)))
(assert (= temp1100_34 (select extend_57706 temp1100_19)))
(assert (= temp1100_35 (select extend_57706 temp1100_21)))
(assert (= temp1100_36 (select extend_57706 temp1100_23)))
(assert (= var66500
   (ite (and true
             (= temp1100_25 temp1100_2)
             (= temp1100_26 temp1100_12)
             (= temp1100_27 temp1100_4)
             (= temp1100_28 temp1100_6)
             (= temp1100_29 temp1100_8)
             (= temp1100_30 temp1100_10)
             (= temp1100_2 temp1100_25)
             (= temp1100_12 temp1100_26)
             (= temp1100_31 temp1100_14)
             (= temp1100_32 temp1100_16)
             (= temp1100_33 temp1100_18)
             (= temp1100_34 temp1100_20)
             (= temp1100_35 temp1100_22)
             (= temp1100_36 temp1100_24)
             (= temp1100_4 temp1100_27)
             (= temp1100_6 temp1100_28)
             (= temp1100_8 temp1100_29)
             (= temp1100_10 temp1100_30)
             (= extend_57707 extend_57710))
        #x0000000000000001
        #x0000000000000000)))
(assert (= temp1100_37 #x0000000000000001))
(assert (= var66500 temp1100_37))
(assert (= temp1100_38 #x0000000000000000))
(assert (= var133870
   (ite (= extend_57707 temp1100_38)
        #x0000000000000001
        #x0000000000000000)))
(assert (= var133866 var133870))
(assert (= var66555 var133866))
(assert (= temp1100_39 #x0000000000000000))
(assert (= var66555 temp1100_39))
(assert (= temp1100_40 #x0000000000000000))
(assert (= temp1100_41 (select ARGNAME_input_NAMEEND_DIMSIZE temp1100_40)))
(assert (= temp1100_42 #x0000000000000001))
(assert (= temp1100_43 (select ARGNAME_input_NAMEEND_DIMSIZE temp1100_42)))
(assert (= temp1100_44 #x0000000000000002))
(assert (= temp1100_45 (select ARGNAME_input_NAMEEND_DIMSIZE temp1100_44)))
(assert (= temp1100_46 #x0000000000000003))
(assert (= temp1100_47 (select ARGNAME_input_NAMEEND_DIMSIZE temp1100_46)))
(assert (= temp1100_48 #x0000000000000004))
(assert (= temp1100_49 (select ARGNAME_input_NAMEEND_DIMSIZE temp1100_48)))
(assert (= temp1100_50 #x0000000000000005))
(assert (= temp1100_51 (select ARGNAME_input_NAMEEND_DIMSIZE temp1100_50)))
(assert (= temp1100_52 (select extend_57706 temp1100_40)))
(assert (= temp1100_53 (select extend_57706 temp1100_42)))
(assert (= temp1100_54 (select extend_57706 temp1100_44)))
(assert (= temp1100_55 (select extend_57706 temp1100_46)))
(assert (= temp1100_56 (select extend_57706 temp1100_48)))
(assert (= temp1100_57 (select extend_57706 temp1100_50)))
(assert (= temp1100_58 (select ARGNAME_input_NAMEEND_DIMSIZE temp1100_1)))
(assert (= temp1100_59 (select ARGNAME_input_NAMEEND_DIMSIZE temp1100_11)))
(assert (= temp1100_60 (select ARGNAME_input_NAMEEND_DIMSIZE temp1100_13)))
(assert (= temp1100_61 (select ARGNAME_input_NAMEEND_DIMSIZE temp1100_15)))
(assert (= temp1100_62 (select ARGNAME_input_NAMEEND_DIMSIZE temp1100_17)))
(assert (= temp1100_63 (select ARGNAME_input_NAMEEND_DIMSIZE temp1100_19)))
(assert (= temp1100_64 (select ARGNAME_input_NAMEEND_DIMSIZE temp1100_21)))
(assert (= temp1100_65 (select ARGNAME_input_NAMEEND_DIMSIZE temp1100_23)))
(assert (= temp1100_66 (select ARGNAME_input_NAMEEND_DIMSIZE temp1100_3)))
(assert (= temp1100_67 (select ARGNAME_input_NAMEEND_DIMSIZE temp1100_5)))
(assert (= temp1100_68 (select ARGNAME_input_NAMEEND_DIMSIZE temp1100_7)))
(assert (= temp1100_69 (select ARGNAME_input_NAMEEND_DIMSIZE temp1100_9)))
(assert (= var66559
   (ite (and true
             (= temp1100_52 temp1100_41)
             (= temp1100_53 temp1100_43)
             (= temp1100_54 temp1100_45)
             (= temp1100_55 temp1100_47)
             (= temp1100_56 temp1100_49)
             (= temp1100_57 temp1100_51)
             (= temp1100_58 temp1100_2)
             (= temp1100_59 temp1100_12)
             (= temp1100_60 temp1100_31)
             (= temp1100_61 temp1100_32)
             (= temp1100_62 temp1100_33)
             (= temp1100_63 temp1100_34)
             (= temp1100_64 temp1100_35)
             (= temp1100_65 temp1100_36)
             (= temp1100_66 temp1100_4)
             (= temp1100_41 temp1100_52)
             (= temp1100_43 temp1100_53)
             (= temp1100_45 temp1100_54)
             (= temp1100_47 temp1100_55)
             (= temp1100_49 temp1100_56)
             (= temp1100_67 temp1100_6)
             (= temp1100_51 temp1100_57)
             (= temp1100_68 temp1100_8)
             (= temp1100_69 temp1100_10)
             (= ARGNAME_input_NAMEEND_DIM extend_57707))
        #x0000000000000001
        #x0000000000000000)))
(assert (= temp1100_70 #x0000000000000001))
(assert (= var66559 temp1100_70))
(assert (= temp1100_71 #x0000000000000000))
(assert (= var66555 temp1100_71))
(assert (= temp1100_72 #x0000000000000000))
(assert (= var66799
   (ite (= ARGNAME_input_NAMEEND_NUMELEMENT temp1100_72)
        #x0000000000000001
        #x0000000000000000)))
(assert (= temp1100_73 #x0000000000000000))
(assert (= var66799 temp1100_73))
(assert (= temp1100_74 #x0000000000000000))
(assert (= var66812 temp1100_74))
(assert (= var199486 var66812))
(assert (= var527627 var66812))
(assert (= var593163 var66812))
(assert (= temp1100_75 #x0000000000000000))
(assert (= var870585 temp1100_75))
(assert (= temp1100_76 #x0000000000000001))
(assert (= var870586 (bvadd var870585 temp1100_76)))
(assert (= temp1100_77 #x0000000000000000))
(assert (= var1001657 temp1100_77))
(assert (= temp1100_78 #x0000000000000001))
(assert (= var1001658 (bvadd var1001657 temp1100_78)))
(assert (= temp1100_79 #x0000000000000000))
(assert (= var739498 temp1100_79))
(assert (= var739460 var739498))
(assert (= var658278 var739460))
(assert (= var658282 var658278))
(assert (= var658263 var658282))
(assert (= var66835 var658263))
(assert (= temp1100_81 #x0000000000000001))
(assert (= var66813 (bvadd var66812 temp1100_81)))
(assert (= var66911
   (ite (bvslt var66813 ARGNAME_input_NAMEEND_NUMELEMENT)
        #x0000000000000001
        #x0000000000000000)))
(model-add temp1100_1 () (_ BitVec 64) #x0000000000000000)
(model-add temp1100_2
           ()
           (_ BitVec 64)
           (select extend_57706 #x0000000000000000))
(model-add temp1100_3 () (_ BitVec 64) #x0000000000000001)
(model-add temp1100_4
           ()
           (_ BitVec 64)
           (select extend_57706 #x0000000000000001))
(model-add temp1100_5 () (_ BitVec 64) #x0000000000000002)
(model-add temp1100_6
           ()
           (_ BitVec 64)
           (select extend_57706 #x0000000000000002))
(model-add temp1100_7 () (_ BitVec 64) #x0000000000000003)
(model-add temp1100_8
           ()
           (_ BitVec 64)
           (select extend_57706 #x0000000000000003))
(model-add temp1100_9 () (_ BitVec 64) #x0000000000000004)
(model-add temp1100_10
           ()
           (_ BitVec 64)
           (select extend_57706 #x0000000000000004))
(model-add temp1100_11 () (_ BitVec 64) #x0000000000000005)
(model-add temp1100_12
           ()
           (_ BitVec 64)
           (select extend_57706 #x0000000000000005))
(model-add temp1100_13 () (_ BitVec 64) #x0000000000000000)
(model-add temp1100_14
           ()
           (_ BitVec 64)
           (select extend_57709 #x0000000000000000))
(model-add temp1100_15 () (_ BitVec 64) #x0000000000000001)
(model-add temp1100_16
           ()
           (_ BitVec 64)
           (select extend_57709 #x0000000000000001))
(model-add temp1100_17 () (_ BitVec 64) #x0000000000000002)
(model-add temp1100_18
           ()
           (_ BitVec 64)
           (select extend_57709 #x0000000000000002))
(model-add temp1100_19 () (_ BitVec 64) #x0000000000000003)
(model-add temp1100_20
           ()
           (_ BitVec 64)
           (select extend_57709 #x0000000000000003))
(model-add temp1100_21 () (_ BitVec 64) #x0000000000000004)
(model-add temp1100_22
           ()
           (_ BitVec 64)
           (select extend_57709 #x0000000000000004))
(model-add temp1100_23 () (_ BitVec 64) #x0000000000000005)
(model-add temp1100_24
           ()
           (_ BitVec 64)
           (select extend_57709 #x0000000000000005))
(model-add temp1100_25
           ()
           (_ BitVec 64)
           (select extend_57709 #x0000000000000000))
(model-add temp1100_26
           ()
           (_ BitVec 64)
           (select extend_57709 #x0000000000000005))
(model-add temp1100_27
           ()
           (_ BitVec 64)
           (select extend_57709 #x0000000000000001))
(model-add temp1100_28
           ()
           (_ BitVec 64)
           (select extend_57709 #x0000000000000002))
(model-add temp1100_29
           ()
           (_ BitVec 64)
           (select extend_57709 #x0000000000000003))
(model-add temp1100_30
           ()
           (_ BitVec 64)
           (select extend_57709 #x0000000000000004))
(model-add temp1100_31
           ()
           (_ BitVec 64)
           (select extend_57706 #x0000000000000000))
(model-add temp1100_32
           ()
           (_ BitVec 64)
           (select extend_57706 #x0000000000000001))
(model-add temp1100_33
           ()
           (_ BitVec 64)
           (select extend_57706 #x0000000000000002))
(model-add temp1100_34
           ()
           (_ BitVec 64)
           (select extend_57706 #x0000000000000003))
(model-add temp1100_35
           ()
           (_ BitVec 64)
           (select extend_57706 #x0000000000000004))
(model-add temp1100_36
           ()
           (_ BitVec 64)
           (select extend_57706 #x0000000000000005))
(model-add temp1100_37 () (_ BitVec 64) #x0000000000000001)
(model-add var66500 () (_ BitVec 64) #x0000000000000001)
(model-del k!0)
(model-add extend_57707
           ()
           (_ BitVec 64)
           (ite k!0
                extend_57710
                (bvnot extend_57710)))
(model-del k!1)
(model-add k!0 () Bool (not k!1))





